\ Model exer1.1
\ LP format - for model browsing. Use MPS format to capture full model detail.
Maximize
  3 x_0 - x_1 - x_2
Subject To
 R0: x_0 - 2 x_1 + x_2 <= 11
 R1: - 4 x_0 + x_1 + 2 x_2 >= 3
 R2: - 2 x_0 + x_2 = 1
Bounds
End
